p edge 300 897
1 2
1 203
1 120
2 69
2 45
2 3
3 166
3 269
3 4
4 70
4 5
4 253
5 45
5 6
5 108
6 7
6 26
6 133
7 178
7 61
7 8
8 106
8 9
8 10
9 177
9 113
9 10
10 266
10 36
10 11
11 86
11 12
11 108
12 82
12 13
12 155
13 282
13 153
13 14
14 15
14 203
14 53
15 16
15 104
15 50
16 44
16 212
16 17
17 26
17 18
17 198
18 107
18 266
18 19
19 150
19 20
19 194
20 297
20 21
20 60
21 89
21 16
21 22
22 120
22 300
22 23
23 215
23 134
23 24
24 204
24 125
24 25
25 289
25 234
25 26
26 135
26 27
26 218
27 79
27 28
27 55
28 29
28 206
28 156
29 30
29 98
29 25
30 31
30 158
30 219
31 56
31 182
31 32
32 210
32 104
32 33
33 247
33 34
33 82
34 136
34 35
34 63
35 285
35 36
35 37
36 37
36 107
36 52
37 196
37 182
37 38
38 168
38 37
38 39
39 40
39 233
39 172
40 208
40 270
40 41
41 251
41 42
41 253
42 43
42 215
42 17
43 300
43 150
43 44
44 261
44 45
44 271
45 254
45 184
45 46
46 209
46 288
46 47
47 285
47 13
47 48
48 158
48 49
48 161
49 50
49 110
49 8
50 51
50 294
50 85
51 113
51 52
51 222
52 53
52 269
52 114
53 54
53 265
53 49
54 55
54 198
54 117
55 67
55 56
55 38
56 30
56 57
56 27
57 113
57 45
57 58
58 155
58 59
58 84
59 121
59 282
59 60
60 61
60 161
60 211
61 249
61 112
61 62
62 63
62 180
62 238
63 146
63 13
63 64
64 299
64 65
64 53
65 68
65 133
65 66
66 67
66 271
66 92
67 68
67 154
67 20
68 246
68 132
68 69
69 70
69 207
69 146
70 71
70 61
70 152
71 72
71 181
71 241
72 125
72 146
72 73
73 145
73 192
73 74
74 73
74 75
74 97
75 149
75 235
75 76
76 77
76 6
76 71
77 30
77 78
77 115
78 79
78 94
78 281
79 80
79 12
79 154
80 1
80 81
80 166
81 62
81 82
81 38
82 44
82 29
82 83
83 169
83 9
83 84
84 131
84 220
84 85
85 86
85 184
85 111
86 87
86 253
86 2
87 88
87 11
87 192
88 281
88 138
88 89
89 147
89 101
89 90
90 249
90 220
90 91
91 146
91 92
91 219
92 154
92 31
92 93
93 94
93 8
93 95
94 95
94 295
94 164
95 31
95 96
95 240
96 64
96 62
96 97
97 46
97 49
97 98
98 99
98 44
98 210
99 277
99 100
99 49
100 101
100 134
100 234
101 43
101 102
101 57
102 72
102 78
102 103
103 179
103 104
103 258
104 105
104 116
104 197
105 106
105 217
105 251
106 255
106 212
106 107
107 23
107 108
107 275
108 103
108 283
108 109
109 110
109 26
109 293
110 111
110 254
110 96
111 112
111 210
111 56
112 113
112 225
112 131
113 67
113 114
113 28
114 287
114 115
114 231
115 116
115 7
115 299
116 75
116 117
116 97
117 118
117 248
117 22
118 134
118 119
118 293
119 135
119 120
119 69
120 121
120 149
120 262
121 47
121 48
121 122
122 133
122 123
122 11
123 18
123 31
123 124
124 108
124 271
124 125
125 126
125 43
125 219
126 98
126 22
126 127
127 150
127 47
127 128
128 104
128 129
128 28
129 130
129 12
129 153
130 91
130 131
130 232
131 132
131 181
131 107
132 28
132 133
133 134
133 94
133 93
134 18
134 135
134 73
135 199
135 87
135 136
136 132
136 158
136 137
137 179
137 138
137 185
138 257
138 254
138 139
139 118
139 197
139 140
140 231
140 141
141 142
141 204
141 138
142 143
142 64
142 252
143 144
143 81
143 241
144 136
144 145
144 15
145 298
145 146
145 95
146 280
146 252
146 147
147 130
147 148
147 30
148 294
148 149
148 286
149 150
149 12
149 275
150 275
150 151
150 133
151 148
151 152
151 295
152 55
152 153
152 252
153 49
153 247
153 154
154 164
154 155
154 41
155 62
155 156
155 249
156 215
156 128
156 157
157 158
157 168
157 122
158 270
158 201
158 159
159 160
159 4
159 130
160 288
160 191
160 161
161 252
161 205
161 162
162 245
162 163
162 262
163 54
163 286
163 164
164 237
164 201
164 165
165 34
165 295
165 166
166 6
166 93
166 167
167 106
167 178
167 168
168 169
168 173
168 249
169 170
169 114
169 121
170 171
170 246
170 118
171 172
171 178
171 241
172 129
172 173
172 31
173 280
173 251
173 174
174 197
174 300
174 175
175 121
175 176
175 178
176 177
176 91
176 168
177 81
177 178
177 224
178 179
178 168
178 70
179 213
179 180
179 253
180 53
180 39
180 181
181 182
181 193
181 140
182 183
182 177
182 235
183 184
183 39
183 193
184 185
184 217
184 231
185 107
185 67
185 186
186 64
186 187
186 285
187 253
187 91
187 188
188 189
188 265
188 270
189 291
189 190
189 44
190 28
190 191
190 254
191 9
191 27
191 192
192 44
192 193
192 227
193 191
193 194
193 104
194 195
194 115
194 45
195 290
195 188
195 196
196 197
196 60
196 9
197 122
197 153
197 198
198 199
198 92
198 46
199 200
199 1
199 121
200 164
200 89
200 201
201 105
201 202
201 289
202 203
202 297
202 213
203 204
203 121
203 7
204 185
204 205
204 43
205 70
205 273
205 206
206 207
206 186
206 193
207 97
207 76
207 208
208 77
208 209
208 119
209 210
209 143
209 244
210 290
210 191
210 211
211 244
211 212
211 120
212 289
212 190
212 213
213 217
213 214
213 92
214 276
214 215
214 105
215 37
215 216
215 260
216 236
216 123
216 217
217 6
217 218
217 45
218 125
218 219
218 142
219 192
219 220
219 251
220 221
220 27
220 248
221 222
221 70
221 132
222 223
222 287
222 106
223 271
223 224
223 136
224 290
224 225
224 21
225 226
225 157
225 43
226 106
226 245
226 227
227 228
227 163
227 111
228 92
228 229
228 193
229 97
229 26
229 230
230 231
230 3
230 45
231 232
231 107
231 73
232 81
232 233
232 123
233 234
233 126
233 246
234 235
234 74
235 236
235 92
235 270
236 101
236 136
236 237
237 238
237 194
237 101
238 239
238 117
238 293
239 240
239 250
239 279
240 248
240 232
240 241
241 242
241 208
241 175
242 125
242 85
242 243
243 140
243 97
243 244
244 245
244 224
244 228
245 240
245 67
245 246
246 55
246 247
246 24
247 24
247 290
247 248
248 273
248 249
248 246
249 250
249 293
249 159
250 208
250 251
250 280
251 151
251 64
251 252
252 253
252 239
252 223
253 254
253 123
253 288
254 233
254 26
254 255
255 230
255 256
255 262
256 280
256 257
256 186
257 258
257 103
257 26
258 200
258 15
258 259
259 10
259 260
259 98
260 48
260 261
260 114
261 262
261 3
261 120
262 72
262 198
262 263
263 135
263 264
263 200
264 129
264 265
264 44
265 263
265 266
265 249
266 215
266 293
266 267
267 134
267 220
267 268
268 269
268 215
268 156
269 77
269 270
269 173
270 28
270 154
270 271
271 272
271 197
271 121
272 273
272 120
272 9
273 98
273 274
273 47
274 275
274 225
274 266
275 276
275 237
275 285
276 242
276 277
276 11
277 278
277 5
277 230
278 74
278 279
278 247
279 280
279 86
279 144
280 171
280 281
280 101
281 93
281 186
281 282
282 134
282 283
282 181
283 223
283 284
283 28
284 246
284 170
284 285
285 249
285 286
285 290
286 203
286 82
286 287
287 257
287 127
287 288
288 46
288 289
288 16
289 54
289 290
289 150
290 291
290 76
290 295
291 241
291 225
291 292
292 95
292 159
292 293
293 294
293 59
293 16
294 90
294 295
294 180
295 271
295 113
295 296
296 297
296 155
296 52
297 16
297 98
297 298
298 63
298 299
298 271
299 300
299 43
299 39
300 290
300 200
300 1
